p cnf 30 50
5 -9 -21 0
-14 -8 4 0
8 3 5 0
21 -1 12 0
-3 28 -7 0
29 24 23 0
10 -27 2 0
2 10 16 0
13 22 3 0
28 -19 -16 0
13 5 -26 0
15 3 24 0
-11 -15 -29 0
5 -6 25 0
-30 -12 -17 0
-13 -11 6 0
-14 -12 1 0
21 30 -2 0
5 10 3 0
17 -26 19 0
26 11 -19 0
13 -7 19 0
29 -19 -14 0
10 29 -14 0
17 -19 15 0
-14 -9 -21 0
-27 6 -17 0
5 -8 18 0
-28 -21 2 0
-14 13 -15 0
-9 -24 18 0
14 -4 -29 0
-22 17 -26 0
17 -5 -12 0
-26 -18 7 0
-4 19 -9 0
-28 -21 -3 0
-20 23 -8 0
-17 29 8 0
9 -25 19 0
-16 20 -17 0
30 -18 -12 0
11 19 2 0
-17 29 22 0
-20 17 27 0
17 23 18 0
-29 -15 -9 0
-10 -1 27 0
9 20 29 0
-5 -20 25 0
